 &GLOBAL
   PRINT_LEVEL  MEDIUM
   PROJECT_NAME BCN-V1_ENERGY
   RUN_TYPE  ENERGY
 &END GLOBAL
 &FORCE_EVAL
  METHOD  QS
  &PROPERTIES
    &TDDFPT
       NSTATES     20             # number of excited states
       MAX_ITER    200           # maximum number of Davidson iterations
       CONVERGENCE [eV] 1.0e-5   # convergence on maximum energy change between iterations
       &MGRID
          NGRIDS 25
          CUTOFF 100
       &END

       !RESTART     .TRUE.
       !WFN_RESTART_FILE_NAME RESTART.tdwfn

    &END TDDFPT
  &END PROPERTIES
  &DFT
    UKS .FALSE. 
    BASIS_SET_FILE_NAME BASIS_MOLOPT
    POTENTIAL_FILE_NAME POTENTIAL 
    &MGRID
      NGRIDS 16
      CUTOFF 500
      REL_CUTOFF 50
    &END MGRID
    &QS
      METHOD GPW
      EPS_DEFAULT 1.000E-14
    &END QS
    &POISSON
      PERIODIC XYZ 
      PSOLVER PERIODIC
    &END
    &SCF
      &DIAGONALIZATION ON
      &END DIAGONALIZATION
      &MIXING
        ALPHA 0.3
        METHOD BROYDEN_MIXING
        NBROYDEN 8
      &END MIXING
      EPS_SCF 1.0E-6
      SCF_GUESS ATOMIC
      MAX_SCF  50
      ADDED_MOS 50
    &END SCF
    &XC
      &XC_FUNCTIONAL
         &PBE
         &END PBE
      &END XC_FUNCTIONAL
      &VDW_POTENTIAL
         POTENTIAL_TYPE PAIR_POTENTIAL 
         &PAIR_POTENTIAL
            PARAMETER_FILE_NAME dftd3.dat
            TYPE DFTD3
            REFERENCE_FUNCTIONAL PBE
            R_CUTOFF [angstrom] 16
         &END
      &END VDW_POTENTIAL
    &END XC
    &PRINT
      &MULLIKEN OFF
      &END
      &HIRSHFELD OFF
      &END
      &MO ON
        FILENAME BCN-V1
        EIGENVECTORS F
        EIGENVALUES F
        NDIGITS 8
      &END
      &PDOS
        APPEND T
        COMPONENTS T
        FILENAME BCN-V1
      &END
      &MO_MOLDEN ON
        FILENAME
        NDIGITS 8
        GTO_KIND SPHERICAL
      &END
      &MO_CUBES
        NHOMO 1 
        NLUMO 1 
        STRIDE 3 3 3 
        WRITE_CUBE T
      &END
    &END PRINT
  &END DFT
  &SUBSYS

    &CELL
      ABC 15.0687999999999995  20.0000000000000000  8.6999999999999993
      PERIODIC  XZ 
    &END CELL


    &TOPOLOGY
      COORD_FILE_NAME BCN-V1.xyz
      COORD_FILE_FORMAT XYZ
      &CENTER_COORDINATES T
      &END CENTER_COORDINATES
      ! Only in case you use cif file
      !&GENERATE
      !  REORDER T
      !&END
    &END

    &KIND  B
      BASIS_SET DZVP-MOLOPT-SR-GTH 
      POTENTIAL GTH-PBE-q3 
    &END KIND
    &KIND C
      BASIS_SET  DZVP-MOLOPT-GTH 
      POTENTIAL  GTH-PBE-q4
    &END KIND

    &KIND N
      BASIS_SET  DZVP-MOLOPT-GTH 
      POTENTIAL  GTH-PBE-q5
    &END KIND
  &END SUBSYS
 &END FORCE_EVAL

