 &GLOBAL
   PRINT_LEVEL  MEDIUM
   PROJECT_NAME BCN_v1_geo_opt
   RUN_TYPE  GEO_OPT
 &END GLOBAL
 &FORCE_EVAL
  ! This one is used for cell optimization
  !STRESS_TENSOR ANALYTICAL
  METHOD  QS
  &DFT
    UKS .FALSE. 
    BASIS_SET_FILE_NAME BASIS_MOLOPT
    POTENTIAL_FILE_NAME POTENTIAL 
    &MGRID
      NGRIDS 16
      CUTOFF 500
      REL_CUTOFF 50
    &END MGRID
    &QS
      METHOD GPW
      EPS_DEFAULT 1.000E-14
    &END QS
    &POISSON
      PERIODIC XYZ 
      PSOLVER PERIODIC
    &END
    &SCF
      &DIAGONALIZATION ON
      &END DIAGONALIZATION
      &MIXING
        ALPHA 0.3
        METHOD BROYDEN_MIXING
        NBROYDEN 8
      &END MIXING
      EPS_SCF 1.0E-8
      SCF_GUESS RESTART
      MAX_SCF  50
      ADDED_MOS 50
    &END SCF
    &XC
      &XC_FUNCTIONAL
         &PBE
         &END PBE
      &END XC_FUNCTIONAL
      ! In CP2K versions lower than v7, this part is required for TDDFT calculations
      &XC_GRID
        XC_DERIV SPLINE2_SMOOTH
      &END XC_GRID
      &VDW_POTENTIAL
         POTENTIAL_TYPE PAIR_POTENTIAL 
         &PAIR_POTENTIAL
            PARAMETER_FILE_NAME dftd3.dat
            TYPE DFTD3
            REFERENCE_FUNCTIONAL PBE
            R_CUTOFF [angstrom] 16
         &END
      &END VDW_POTENTIAL
    &END XC
    &PRINT
      &MULLIKEN OFF
      &END
      &HIRSHFELD OFF
      &END
    &END PRINT
  &END DFT
  &SUBSYS

    &CELL
      ABC 15.0687999999999995  20.0000000000000000  8.6999999999999993
      PERIODIC  XZ 
    &END CELL


    &TOPOLOGY
      COORD_FILE_NAME BCN_v1.xyz
      COORD_FILE_FORMAT XYZ
      &CENTER_COORDINATES T
      &END CENTER_COORDINATES
      ! Only in case you use cif file
      !&GENERATE
      !  REORDER T
      !&END
    &END

    &KIND  B
      BASIS_SET DZVP-MOLOPT-SR-GTH 
      POTENTIAL GTH-PBE-q3 
    &END KIND
    &KIND C
      BASIS_SET  DZVP-MOLOPT-GTH 
      POTENTIAL  GTH-PBE-q4
    &END KIND

    &KIND N
      BASIS_SET  DZVP-MOLOPT-GTH 
      POTENTIAL  GTH-PBE-q5
    &END KIND
  &END SUBSYS
 &END FORCE_EVAL

&MOTION
 &GEO_OPT
   OPTIMIZER BFGS
   MAX_ITER  550
   MAX_DR    [bohr] 0.002
   MAX_FORCE 3.000E-4
   RMS_DR    [bohr] 0.002
   RMS_FORCE 3.000E-4
   &BFGS
   &END
 &END
 &PRINT
  &TRAJECTORY
    &EACH
      GEO_OPT 1
    &END EACH
  &END TRAJECTORY
  &FORCES ON
  &END FORCES
  &RESTART
    BACKUP_COPIES 1
    &EACH
      GEO_OPT 1
    &END EACH
  &END RESTART
 &END PRINT
&END
